(set-option :produce-models true)
(set-logic QF_LRA)
(set-info :notes | Strip-packing problem.|)
(declare-fun x0 () Real)
(declare-fun y0 () Real)
(declare-fun x1 () Real)
(declare-fun y1 () Real)
(declare-fun x2 () Real)
(declare-fun y2 () Real)
(declare-fun x3 () Real)
(declare-fun y3 () Real)
(declare-fun x4 () Real)
(declare-fun y4 () Real)
(declare-fun x5 () Real)
(declare-fun y5 () Real)
(declare-fun x6 () Real)
(declare-fun y6 () Real)
(declare-fun x7 () Real)
(declare-fun y7 () Real)
(declare-fun x8 () Real)
(declare-fun y8 () Real)
(declare-fun x9 () Real)
(declare-fun y9 () Real)
(declare-fun x10 () Real)
(declare-fun y10 () Real)
(declare-fun x11 () Real)
(declare-fun y11 () Real)
(declare-fun z () Real)
(declare-fun c () Real)
(assert (and (= c z) (and (>= x0 0) 
(and (>= y0 0) 
(and (>= x1 0) 
(and (>= y1 0) 
(and (>= x2 0) 
(and (>= y2 0) 
(and (>= x3 0) 
(and (>= y3 0) 
(and (>= x4 0) 
(and (>= y4 0) 
(and (>= x5 0) 
(and (>= y5 0) 
(and (>= x6 0) 
(and (>= y6 0) 
(and (>= x7 0) 
(and (>= y7 0) 
(and (>= x8 0) 
(and (>= y8 0) 
(and (>= x9 0) 
(and (>= y9 0) 
(and (>= x10 0) 
(and (>= y10 0) 
(and (>= x11 0) 
(and (>= y11 0) 
(and (>= z 0) 
(and (>= c 0) 
(and (<= (+ x0 0.0152821978) z) 
(and (<= 0.9745719562 y0) 
(and (<= y0 1.73205080757) 
(and (<= x0 (- 3.0057555107 0.0152821978)) 
(and (>= x0 0) 
(and (<= (+ x1 0.5541571464) z) 
(and (<= 0.9036432796 y1) 
(and (<= y1 1.73205080757) 
(and (<= x1 (- 3.0057555107 0.5541571464)) 
(and (>= x1 0) 
(and (<= (+ x2 0.5405661207) z) 
(and (<= 0.8636412895 y2) 
(and (<= y2 1.73205080757) 
(and (<= x2 (- 3.0057555107 0.5405661207)) 
(and (>= x2 0) 
(and (<= (+ x3 0.0049392797) z) 
(and (<= 0.8453560038 y3) 
(and (<= y3 1.73205080757) 
(and (<= x3 (- 3.0057555107 0.0049392797)) 
(and (>= x3 0) 
(and (<= (+ x4 0.0902307621) z) 
(and (<= 0.7059209592 y4) 
(and (<= y4 1.73205080757) 
(and (<= x4 (- 3.0057555107 0.0902307621)) 
(and (>= x4 0) 
(and (<= (+ x5 0.9274483956) z) 
(and (<= 0.6802351119 y5) 
(and (<= y5 1.73205080757) 
(and (<= x5 (- 3.0057555107 0.9274483956)) 
(and (>= x5 0) 
(and (<= (+ x6 0.9683016502) z) 
(and (<= 0.6540231982 y6) 
(and (<= y6 1.73205080757) 
(and (<= x6 (- 3.0057555107 0.9683016502)) 
(and (>= x6 0) 
(and (<= (+ x7 0.6199107004) z) 
(and (<= 0.6001035076 y7) 
(and (<= y7 1.73205080757) 
(and (<= x7 (- 3.0057555107 0.6199107004)) 
(and (>= x7 0) 
(and (<= (+ x8 0.285376283) z) 
(and (<= 0.589474076 y8) 
(and (<= y8 1.73205080757) 
(and (<= x8 (- 3.0057555107 0.285376283)) 
(and (>= x8 0) 
(and (<= (+ x9 0.3260604465) z) 
(and (<= 0.4019744455 y9) 
(and (<= y9 1.73205080757) 
(and (<= x9 (- 3.0057555107 0.3260604465)) 
(and (>= x9 0) 
(and (<= (+ x10 0.5492474902) z) 
(and (<= 0.2308703152 y10) 
(and (<= y10 1.73205080757) 
(and (<= x10 (- 3.0057555107 0.5492474902)) 
(and (>= x10 0) 
(and (<= (+ x11 0.7241668524) z) 
(and (<= 0.2191774853 y11) 
(and (<= y11 1.73205080757) 
(and (<= x11 (- 3.0057555107 0.7241668524)) 
(and (>= x11 0) 
(and (<= c 3.0057555107) 
(and (or (<= (+ x0 0.0152821978) x1) (or (<= (+ x1 0.5541571464) x0) (or (>= (- y0 0.9745719562) y1) (or (>= (- y1 0.9036432796) y0))))) 
(and (or (<= (+ x0 0.0152821978) x2) (or (<= (+ x2 0.5405661207) x0) (or (>= (- y0 0.9745719562) y2) (or (>= (- y2 0.8636412895) y0))))) 
(and (or (<= (+ x0 0.0152821978) x3) (or (<= (+ x3 0.0049392797) x0) (or (>= (- y0 0.9745719562) y3) (or (>= (- y3 0.8453560038) y0))))) 
(and (or (<= (+ x0 0.0152821978) x4) (or (<= (+ x4 0.0902307621) x0) (or (>= (- y0 0.9745719562) y4) (or (>= (- y4 0.7059209592) y0))))) 
(and (or (<= (+ x0 0.0152821978) x5) (or (<= (+ x5 0.9274483956) x0) (or (>= (- y0 0.9745719562) y5) (or (>= (- y5 0.6802351119) y0))))) 
(and (or (<= (+ x0 0.0152821978) x6) (or (<= (+ x6 0.9683016502) x0) (or (>= (- y0 0.9745719562) y6) (or (>= (- y6 0.6540231982) y0))))) 
(and (or (<= (+ x0 0.0152821978) x7) (or (<= (+ x7 0.6199107004) x0) (or (>= (- y0 0.9745719562) y7) (or (>= (- y7 0.6001035076) y0))))) 
(and (or (<= (+ x0 0.0152821978) x8) (or (<= (+ x8 0.285376283) x0) (or (>= (- y0 0.9745719562) y8) (or (>= (- y8 0.589474076) y0))))) 
(and (or (<= (+ x0 0.0152821978) x9) (or (<= (+ x9 0.3260604465) x0) (or (>= (- y0 0.9745719562) y9) (or (>= (- y9 0.4019744455) y0))))) 
(and (or (<= (+ x0 0.0152821978) x10) (or (<= (+ x10 0.5492474902) x0) (or (>= (- y0 0.9745719562) y10) (or (>= (- y10 0.2308703152) y0))))) 
(and (or (<= (+ x0 0.0152821978) x11) (or (<= (+ x11 0.7241668524) x0) (or (>= (- y0 0.9745719562) y11) (or (>= (- y11 0.2191774853) y0))))) 
(and (or (<= (+ x1 0.5541571464) x2) (or (<= (+ x2 0.5405661207) x1) (or (>= (- y1 0.9036432796) y2) (or (>= (- y2 0.8636412895) y1))))) 
(and (or (<= (+ x1 0.5541571464) x3) (or (<= (+ x3 0.0049392797) x1) (or (>= (- y1 0.9036432796) y3) (or (>= (- y3 0.8453560038) y1))))) 
(and (or (<= (+ x1 0.5541571464) x4) (or (<= (+ x4 0.0902307621) x1) (or (>= (- y1 0.9036432796) y4) (or (>= (- y4 0.7059209592) y1))))) 
(and (or (<= (+ x1 0.5541571464) x5) (or (<= (+ x5 0.9274483956) x1) (or (>= (- y1 0.9036432796) y5) (or (>= (- y5 0.6802351119) y1))))) 
(and (or (<= (+ x1 0.5541571464) x6) (or (<= (+ x6 0.9683016502) x1) (or (>= (- y1 0.9036432796) y6) (or (>= (- y6 0.6540231982) y1))))) 
(and (or (<= (+ x1 0.5541571464) x7) (or (<= (+ x7 0.6199107004) x1) (or (>= (- y1 0.9036432796) y7) (or (>= (- y7 0.6001035076) y1))))) 
(and (or (<= (+ x1 0.5541571464) x8) (or (<= (+ x8 0.285376283) x1) (or (>= (- y1 0.9036432796) y8) (or (>= (- y8 0.589474076) y1))))) 
(and (or (<= (+ x1 0.5541571464) x9) (or (<= (+ x9 0.3260604465) x1) (or (>= (- y1 0.9036432796) y9) (or (>= (- y9 0.4019744455) y1))))) 
(and (or (<= (+ x1 0.5541571464) x10) (or (<= (+ x10 0.5492474902) x1) (or (>= (- y1 0.9036432796) y10) (or (>= (- y10 0.2308703152) y1))))) 
(and (or (<= (+ x1 0.5541571464) x11) (or (<= (+ x11 0.7241668524) x1) (or (>= (- y1 0.9036432796) y11) (or (>= (- y11 0.2191774853) y1))))) 
(and (or (<= (+ x2 0.5405661207) x3) (or (<= (+ x3 0.0049392797) x2) (or (>= (- y2 0.8636412895) y3) (or (>= (- y3 0.8453560038) y2))))) 
(and (or (<= (+ x2 0.5405661207) x4) (or (<= (+ x4 0.0902307621) x2) (or (>= (- y2 0.8636412895) y4) (or (>= (- y4 0.7059209592) y2))))) 
(and (or (<= (+ x2 0.5405661207) x5) (or (<= (+ x5 0.9274483956) x2) (or (>= (- y2 0.8636412895) y5) (or (>= (- y5 0.6802351119) y2))))) 
(and (or (<= (+ x2 0.5405661207) x6) (or (<= (+ x6 0.9683016502) x2) (or (>= (- y2 0.8636412895) y6) (or (>= (- y6 0.6540231982) y2))))) 
(and (or (<= (+ x2 0.5405661207) x7) (or (<= (+ x7 0.6199107004) x2) (or (>= (- y2 0.8636412895) y7) (or (>= (- y7 0.6001035076) y2))))) 
(and (or (<= (+ x2 0.5405661207) x8) (or (<= (+ x8 0.285376283) x2) (or (>= (- y2 0.8636412895) y8) (or (>= (- y8 0.589474076) y2))))) 
(and (or (<= (+ x2 0.5405661207) x9) (or (<= (+ x9 0.3260604465) x2) (or (>= (- y2 0.8636412895) y9) (or (>= (- y9 0.4019744455) y2))))) 
(and (or (<= (+ x2 0.5405661207) x10) (or (<= (+ x10 0.5492474902) x2) (or (>= (- y2 0.8636412895) y10) (or (>= (- y10 0.2308703152) y2))))) 
(and (or (<= (+ x2 0.5405661207) x11) (or (<= (+ x11 0.7241668524) x2) (or (>= (- y2 0.8636412895) y11) (or (>= (- y11 0.2191774853) y2))))) 
(and (or (<= (+ x3 0.0049392797) x4) (or (<= (+ x4 0.0902307621) x3) (or (>= (- y3 0.8453560038) y4) (or (>= (- y4 0.7059209592) y3))))) 
(and (or (<= (+ x3 0.0049392797) x5) (or (<= (+ x5 0.9274483956) x3) (or (>= (- y3 0.8453560038) y5) (or (>= (- y5 0.6802351119) y3))))) 
(and (or (<= (+ x3 0.0049392797) x6) (or (<= (+ x6 0.9683016502) x3) (or (>= (- y3 0.8453560038) y6) (or (>= (- y6 0.6540231982) y3))))) 
(and (or (<= (+ x3 0.0049392797) x7) (or (<= (+ x7 0.6199107004) x3) (or (>= (- y3 0.8453560038) y7) (or (>= (- y7 0.6001035076) y3))))) 
(and (or (<= (+ x3 0.0049392797) x8) (or (<= (+ x8 0.285376283) x3) (or (>= (- y3 0.8453560038) y8) (or (>= (- y8 0.589474076) y3))))) 
(and (or (<= (+ x3 0.0049392797) x9) (or (<= (+ x9 0.3260604465) x3) (or (>= (- y3 0.8453560038) y9) (or (>= (- y9 0.4019744455) y3))))) 
(and (or (<= (+ x3 0.0049392797) x10) (or (<= (+ x10 0.5492474902) x3) (or (>= (- y3 0.8453560038) y10) (or (>= (- y10 0.2308703152) y3))))) 
(and (or (<= (+ x3 0.0049392797) x11) (or (<= (+ x11 0.7241668524) x3) (or (>= (- y3 0.8453560038) y11) (or (>= (- y11 0.2191774853) y3))))) 
(and (or (<= (+ x4 0.0902307621) x5) (or (<= (+ x5 0.9274483956) x4) (or (>= (- y4 0.7059209592) y5) (or (>= (- y5 0.6802351119) y4))))) 
(and (or (<= (+ x4 0.0902307621) x6) (or (<= (+ x6 0.9683016502) x4) (or (>= (- y4 0.7059209592) y6) (or (>= (- y6 0.6540231982) y4))))) 
(and (or (<= (+ x4 0.0902307621) x7) (or (<= (+ x7 0.6199107004) x4) (or (>= (- y4 0.7059209592) y7) (or (>= (- y7 0.6001035076) y4))))) 
(and (or (<= (+ x4 0.0902307621) x8) (or (<= (+ x8 0.285376283) x4) (or (>= (- y4 0.7059209592) y8) (or (>= (- y8 0.589474076) y4))))) 
(and (or (<= (+ x4 0.0902307621) x9) (or (<= (+ x9 0.3260604465) x4) (or (>= (- y4 0.7059209592) y9) (or (>= (- y9 0.4019744455) y4))))) 
(and (or (<= (+ x4 0.0902307621) x10) (or (<= (+ x10 0.5492474902) x4) (or (>= (- y4 0.7059209592) y10) (or (>= (- y10 0.2308703152) y4))))) 
(and (or (<= (+ x4 0.0902307621) x11) (or (<= (+ x11 0.7241668524) x4) (or (>= (- y4 0.7059209592) y11) (or (>= (- y11 0.2191774853) y4))))) 
(and (or (<= (+ x5 0.9274483956) x6) (or (<= (+ x6 0.9683016502) x5) (or (>= (- y5 0.6802351119) y6) (or (>= (- y6 0.6540231982) y5))))) 
(and (or (<= (+ x5 0.9274483956) x7) (or (<= (+ x7 0.6199107004) x5) (or (>= (- y5 0.6802351119) y7) (or (>= (- y7 0.6001035076) y5))))) 
(and (or (<= (+ x5 0.9274483956) x8) (or (<= (+ x8 0.285376283) x5) (or (>= (- y5 0.6802351119) y8) (or (>= (- y8 0.589474076) y5))))) 
(and (or (<= (+ x5 0.9274483956) x9) (or (<= (+ x9 0.3260604465) x5) (or (>= (- y5 0.6802351119) y9) (or (>= (- y9 0.4019744455) y5))))) 
(and (or (<= (+ x5 0.9274483956) x10) (or (<= (+ x10 0.5492474902) x5) (or (>= (- y5 0.6802351119) y10) (or (>= (- y10 0.2308703152) y5))))) 
(and (or (<= (+ x5 0.9274483956) x11) (or (<= (+ x11 0.7241668524) x5) (or (>= (- y5 0.6802351119) y11) (or (>= (- y11 0.2191774853) y5))))) 
(and (or (<= (+ x6 0.9683016502) x7) (or (<= (+ x7 0.6199107004) x6) (or (>= (- y6 0.6540231982) y7) (or (>= (- y7 0.6001035076) y6))))) 
(and (or (<= (+ x6 0.9683016502) x8) (or (<= (+ x8 0.285376283) x6) (or (>= (- y6 0.6540231982) y8) (or (>= (- y8 0.589474076) y6))))) 
(and (or (<= (+ x6 0.9683016502) x9) (or (<= (+ x9 0.3260604465) x6) (or (>= (- y6 0.6540231982) y9) (or (>= (- y9 0.4019744455) y6))))) 
(and (or (<= (+ x6 0.9683016502) x10) (or (<= (+ x10 0.5492474902) x6) (or (>= (- y6 0.6540231982) y10) (or (>= (- y10 0.2308703152) y6))))) 
(and (or (<= (+ x6 0.9683016502) x11) (or (<= (+ x11 0.7241668524) x6) (or (>= (- y6 0.6540231982) y11) (or (>= (- y11 0.2191774853) y6))))) 
(and (or (<= (+ x7 0.6199107004) x8) (or (<= (+ x8 0.285376283) x7) (or (>= (- y7 0.6001035076) y8) (or (>= (- y8 0.589474076) y7))))) 
(and (or (<= (+ x7 0.6199107004) x9) (or (<= (+ x9 0.3260604465) x7) (or (>= (- y7 0.6001035076) y9) (or (>= (- y9 0.4019744455) y7))))) 
(and (or (<= (+ x7 0.6199107004) x10) (or (<= (+ x10 0.5492474902) x7) (or (>= (- y7 0.6001035076) y10) (or (>= (- y10 0.2308703152) y7))))) 
(and (or (<= (+ x7 0.6199107004) x11) (or (<= (+ x11 0.7241668524) x7) (or (>= (- y7 0.6001035076) y11) (or (>= (- y11 0.2191774853) y7))))) 
(and (or (<= (+ x8 0.285376283) x9) (or (<= (+ x9 0.3260604465) x8) (or (>= (- y8 0.589474076) y9) (or (>= (- y9 0.4019744455) y8))))) 
(and (or (<= (+ x8 0.285376283) x10) (or (<= (+ x10 0.5492474902) x8) (or (>= (- y8 0.589474076) y10) (or (>= (- y10 0.2308703152) y8))))) 
(and (or (<= (+ x8 0.285376283) x11) (or (<= (+ x11 0.7241668524) x8) (or (>= (- y8 0.589474076) y11) (or (>= (- y11 0.2191774853) y8))))) 
(and (or (<= (+ x9 0.3260604465) x10) (or (<= (+ x10 0.5492474902) x9) (or (>= (- y9 0.4019744455) y10) (or (>= (- y10 0.2308703152) y9))))) 
(and (or (<= (+ x9 0.3260604465) x11) (or (<= (+ x11 0.7241668524) x9) (or (>= (- y9 0.4019744455) y11) (or (>= (- y11 0.2191774853) y9))))) 
(and (or (<= (+ x10 0.5492474902) x11) (or (<= (+ x11 0.7241668524) x10) (or (>= (- y10 0.2308703152) y11) (or (>= (- y11 0.2191774853) y10))))) )))))))))))))))))))))))))))))))))))))))))))))))))))))))))))))))))))))))))))))))))))))))))))))))))))))))))))))))))))))))))))))))))))))))))))))))))))))))))))
(minimize c)
(check-sat)
(get-objectives)
(exit)
